VRPTWMS/instances/mip/freight/5/N5-C_DV10-C_SV50_F12_18_No_1.lp
\ N5-C_DV10-C_SV50_F12_18

Minimize
  13.0 x_d0_c1 + 13.0 z_d0_c1 + 26.42 x_d0_c2 + 26.42 z_d0_c2 + 15.62 x_d0_c3 + 15.62 z_d0_c3 + 33.11 x_d0_c4 + 33.11 z_d0_c4 + 17.0 x_d0_c5 + 17.0 z_d0_c5 + 37.54 x_c1_c2 + 37.54 x_c2_c1 + 37.54 z_c1_c2 + 37.54 z_c2_c1 + 28.3 x_c1_c3 + 28.3 x_c3_c1 + 28.3 z_c1_c3 + 28.3 z_c3_c1 + 35.06 x_c1_c4 + 35.06 x_c4_c1 + 35.06 z_c1_c4 + 35.06 z_c4_c1 + 22.36 x_c1_c5 + 22.36 x_c5_c1 + 22.36 z_c1_c5 + 22.36 z_c5_c1 + 13.04 x_c2_c3 + 13.04 x_c3_c2 + 13.04 z_c2_c3 + 13.04 z_c3_c2 + 27.89 x_c2_c4 + 27.89 x_c4_c2 + 27.89 z_c2_c4 + 27.89 z_c4_c2 + 38.33 x_c2_c5 + 38.33 x_c5_c2 + 38.33 z_c2_c5 + 38.33 z_c5_c2 + 32.8 x_c3_c4 + 32.8 x_c4_c3 + 32.8 z_c3_c4 + 32.8 z_c4_c3 + 25.32 x_c3_c5 + 25.32 x_c5_c3 + 25.32 z_c3_c5 + 25.32 z_c5_c3 + 50.09 x_c4_c5 + 50.09 x_c5_c4 + 50.09 z_c4_c5 + 50.09 z_c5_c4 + 13.0 x_c1_dN + 13.0 z_c1_dN + 26.42 x_c2_dN + 26.42 z_c2_dN + 15.62 x_c3_dN + 15.62 z_c3_dN + 33.11 x_c4_dN + 33.11 z_c4_dN + 17.0 x_c5_dN + 17.0 z_c5_dN + 1000.0 x_d0_c1 + 1000.0 z_d0_c1 + 1000.0 x_d0_c2 + 1000.0 z_d0_c2 + 1000.0 x_d0_c3 + 1000.0 z_d0_c3 + 1000.0 x_d0_c4 + 1000.0 z_d0_c4 + 1000.0 x_d0_c5 + 1000.0 z_d0_c5
Subject To
  Successor_DV_c1: x_c1_c2 + x_c1_c3 + x_c1_c4 + x_c1_c5 + x_c1_dN = 1
  Successor_DV_c2: x_c2_c1 + x_c2_c3 + x_c2_c4 + x_c2_c5 + x_c2_dN = 1
  Successor_DV_c3: x_c3_c1 + x_c3_c2 + x_c3_c4 + x_c3_c5 + x_c3_dN = 1
  Successor_DV_c4: x_c4_c1 + x_c4_c2 + x_c4_c3 + x_c4_c5 + x_c4_dN = 1
  Successor_DV_c5: x_c5_c1 + x_c5_c2 + x_c5_c3 + x_c5_c4 + x_c5_dN = 1
  Successor_SV_c1: z_c1_c2 + z_c1_c3 + z_c1_c4 + z_c1_c5 + z_c1_dN <= 1
  Successor_SV_c2: z_c2_c1 + z_c2_c3 + z_c2_c4 + z_c2_c5 + z_c2_dN <= 1
  Successor_SV_c3: z_c3_c1 + z_c3_c2 + z_c3_c4 + z_c3_c5 + z_c3_dN <= 1
  Successor_SV_c4: z_c4_c1 + z_c4_c2 + z_c4_c3 + z_c4_c5 + z_c4_dN <= 1
  Successor_SV_c5: z_c5_c1 + z_c5_c2 + z_c5_c3 + z_c5_c4 + z_c5_dN <= 1
  Flow_DV_c1: x_d0_c1 + x_c2_c1 + x_c3_c1 + x_c4_c1 + x_c5_c1 - x_c1_dN - x_c1_c2 - x_c1_c3 - x_c1_c4 - x_c1_c5 = 0
  Flow_DV_c2: x_d0_c2 + x_c1_c2 + x_c3_c2 + x_c4_c2 + x_c5_c2 - x_c2_dN - x_c2_c1 - x_c2_c3 - x_c2_c4 - x_c2_c5 = 0
  Flow_DV_c3: x_d0_c3 + x_c1_c3 + x_c2_c3 + x_c4_c3 + x_c5_c3 - x_c3_dN - x_c3_c1 - x_c3_c2 - x_c3_c4 - x_c3_c5 = 0
  Flow_DV_c4: x_d0_c4 + x_c1_c4 + x_c2_c4 + x_c3_c4 + x_c5_c4 - x_c4_dN - x_c4_c1 - x_c4_c2 - x_c4_c3 - x_c4_c5 = 0
  Flow_DV_c5: x_d0_c5 + x_c1_c5 + x_c2_c5 + x_c3_c5 + x_c4_c5 - x_c5_dN - x_c5_c1 - x_c5_c2 - x_c5_c3 - x_c5_c4 = 0
  Flow_SV_c1: z_d0_c1 + z_c2_c1 + z_c3_c1 + z_c4_c1 + z_c5_c1 - z_c1_dN - z_c1_c2 - z_c1_c3 - z_c1_c4 - z_c1_c5 = 0
  Flow_SV_c2: z_d0_c2 + z_c1_c2 + z_c3_c2 + z_c4_c2 + z_c5_c2 - z_c2_dN - z_c2_c1 - z_c2_c3 - z_c2_c4 - z_c2_c5 = 0
  Flow_SV_c3: z_d0_c3 + z_c1_c3 + z_c2_c3 + z_c4_c3 + z_c5_c3 - z_c3_dN - z_c3_c1 - z_c3_c2 - z_c3_c4 - z_c3_c5 = 0
  Flow_SV_c4: z_d0_c4 + z_c1_c4 + z_c2_c4 + z_c3_c4 + z_c5_c4 - z_c4_dN - z_c4_c1 - z_c4_c2 - z_c4_c3 - z_c4_c5 = 0
  Flow_SV_c5: z_d0_c5 + z_c1_c5 + z_c2_c5 + z_c3_c5 + z_c4_c5 - z_c5_dN - z_c5_c1 - z_c5_c2 - z_c5_c3 - z_c5_c4 = 0
  travelDV_d0_c1: tauD_d0 - tauD_c1 + 103.25 x_d0_c1 <= 100.0
  travelDV_d0_c2: tauD_d0 - tauD_c2 + 106.605 x_d0_c2 <= 100.0
  travelDV_d0_c3: tauD_d0 - tauD_c3 + 103.905 x_d0_c3 <= 100.0
  travelDV_d0_c4: tauD_d0 - tauD_c4 + 108.2775 x_d0_c4 <= 100.0
  travelDV_d0_c5: tauD_d0 - tauD_c5 + 104.25 x_d0_c5 <= 100.0
  travelDV_c1_c2: tauD_c1 - tauD_c2 + 117.385 x_c1_c2 + 8.0 p_1 <= 100.0
  travelDV_c1_c3: tauD_c1 - tauD_c3 + 115.075 x_c1_c3 + 8.0 p_1 <= 100.0
  travelDV_c1_c4: tauD_c1 - tauD_c4 + 116.765 x_c1_c4 + 8.0 p_1 <= 100.0
  travelDV_c1_c5: tauD_c1 - tauD_c5 + 113.59 x_c1_c5 + 8.0 p_1 <= 100.0
  travelDV_c2_c1: tauD_c2 - tauD_c1 + 116.385 x_c2_c1 + 8.0 p_2 <= 100.0
  travelDV_c2_c3: tauD_c2 - tauD_c3 + 110.26 x_c2_c3 + 8.0 p_2 <= 100.0
  travelDV_c2_c4: tauD_c2 - tauD_c4 + 113.9725 x_c2_c4 + 8.0 p_2 <= 100.0
  travelDV_c2_c5: tauD_c2 - tauD_c5 + 116.5825 x_c2_c5 + 8.0 p_2 <= 100.0
  travelDV_c3_c1: tauD_c3 - tauD_c1 + 112.075 x_c3_c1 + 8.0 p_3 <= 100.0
  travelDV_c3_c2: tauD_c3 - tauD_c2 + 108.26 x_c3_c2 + 8.0 p_3 <= 100.0
  travelDV_c3_c4: tauD_c3 - tauD_c4 + 113.2 x_c3_c4 + 8.0 p_3 <= 100.0
  travelDV_c3_c5: tauD_c3 - tauD_c5 + 111.33 x_c3_c5 + 8.0 p_3 <= 100.0
  travelDV_c4_c1: tauD_c4 - tauD_c1 + 111.765 x_c4_c1 + 8.0 p_4 <= 100.0
  travelDV_c4_c2: tauD_c4 - tauD_c2 + 109.9725 x_c4_c2 + 8.0 p_4 <= 100.0
  travelDV_c4_c3: tauD_c4 - tauD_c3 + 111.2 x_c4_c3 + 8.0 p_4 <= 100.0
  travelDV_c4_c5: tauD_c4 - tauD_c5 + 115.5225 x_c4_c5 + 8.0 p_4 <= 100.0
  travelDV_c5_c1: tauD_c5 - tauD_c1 + 109.59 x_c5_c1 + 8.0 p_5 <= 100.0
  travelDV_c5_c2: tauD_c5 - tauD_c2 + 113.5825 x_c5_c2 + 8.0 p_5 <= 100.0
  travelDV_c5_c3: tauD_c5 - tauD_c3 + 110.33 x_c5_c3 + 8.0 p_5 <= 100.0
  travelDV_c5_c4: tauD_c5 - tauD_c4 + 116.5225 x_c5_c4 + 8.0 p_5 <= 100.0
  TravelSV_d0_c1: tauS_d0 - tauS_c1 + 100.0 z_d0_c1 <= 96.75
  TravelSV_d0_c2: tauS_d0 - tauS_c2 + 100.0 z_d0_c2 <= 93.395
  TravelSV_d0_c3: tauS_d0 - tauS_c3 + 100.0 z_d0_c3 <= 96.095
  TravelSV_d0_c4: tauS_d0 - tauS_c4 + 100.0 z_d0_c4 <= 91.7225
  TravelSV_d0_c5: tauS_d0 - tauS_c5 + 100.0 z_d0_c5 <= 95.75
  TravelSV_d0_dN: tauS_d0 - tauS_dN + 100.0 z_d0_dN <= 100.0
  TravelSV_c1_c2: tauS_c1 - tauS_c2 + 100.0 z_c1_c2 <= 82.615
  TravelSV_c1_c3: tauS_c1 - tauS_c3 + 100.0 z_c1_c3 <= 84.925
  TravelSV_c1_c4: tauS_c1 - tauS_c4 + 100.0 z_c1_c4 <= 83.235
  TravelSV_c1_c5: tauS_c1 - tauS_c5 + 100.0 z_c1_c5 <= 86.41
  TravelSV_c1_dN: tauS_c1 - tauS_dN + 100.0 z_c1_dN <= 88.75
  TravelSV_c2_c1: tauS_c2 - tauS_c1 + 100.0 z_c2_c1 <= 82.615
  TravelSV_c2_c3: tauS_c2 - tauS_c3 + 100.0 z_c2_c3 <= 88.74
  TravelSV_c2_c4: tauS_c2 - tauS_c4 + 100.0 z_c2_c4 <= 85.0275
  TravelSV_c2_c5: tauS_c2 - tauS_c5 + 100.0 z_c2_c5 <= 82.4175
  TravelSV_c2_dN: tauS_c2 - tauS_dN + 100.0 z_c2_dN <= 85.395
  TravelSV_c3_c1: tauS_c3 - tauS_c1 + 100.0 z_c3_c1 <= 84.925
  TravelSV_c3_c2: tauS_c3 - tauS_c2 + 100.0 z_c3_c2 <= 88.74
  TravelSV_c3_c4: tauS_c3 - tauS_c4 + 100.0 z_c3_c4 <= 83.8
  TravelSV_c3_c5: tauS_c3 - tauS_c5 + 100.0 z_c3_c5 <= 85.67
  TravelSV_c3_dN: tauS_c3 - tauS_dN + 100.0 z_c3_dN <= 88.095
  TravelSV_c4_c1: tauS_c4 - tauS_c1 + 100.0 z_c4_c1 <= 83.235
  TravelSV_c4_c2: tauS_c4 - tauS_c2 + 100.0 z_c4_c2 <= 85.0275
  TravelSV_c4_c3: tauS_c4 - tauS_c3 + 100.0 z_c4_c3 <= 83.8
  TravelSV_c4_c5: tauS_c4 - tauS_c5 + 100.0 z_c4_c5 <= 79.47749999999999
  TravelSV_c4_dN: tauS_c4 - tauS_dN + 100.0 z_c4_dN <= 83.7225
  TravelSV_c5_c1: tauS_c5 - tauS_c1 + 100.0 z_c5_c1 <= 86.41
  TravelSV_c5_c2: tauS_c5 - tauS_c2 + 100.0 z_c5_c2 <= 82.4175
  TravelSV_c5_c3: tauS_c5 - tauS_c3 + 100.0 z_c5_c3 <= 85.67
  TravelSV_c5_c4: tauS_c5 - tauS_c4 + 100.0 z_c5_c4 <= 79.47749999999999
  TravelSV_c5_dN: tauS_c5 - tauS_dN + 100.0 z_c5_dN <= 87.75
  time_window_c1_e: tauD_c1 + 8.0 o_1 >= 0.0
  time_window_c1_l: tauD_c1 + 8.0 o_1 <= 100.0
  time_window_c2_e: tauD_c2 + 8.0 o_2 >= 25.0
  time_window_c2_l: tauD_c2 + 8.0 o_2 <= 40.0
  time_window_c3_e: tauD_c3 + 8.0 o_3 >= 10.0
  time_window_c3_l: tauD_c3 + 8.0 o_3 <= 25.0
  time_window_c4_e: tauD_c4 + 8.0 o_4 >= 65.0
  time_window_c4_l: tauD_c4 + 8.0 o_4 <= 80.0
  time_window_c5_e: tauD_c5 + 8.0 o_5 >= 5.0
  time_window_c5_l: tauD_c5 + 8.0 o_5 <= 20.0
  SyncA_c1_c2_c2: 8.0 o_1 + 100.0 x_c1_c2 - tauD_c2 - 9.385 z_c1_c2 + [ tauS_c2 * z_c1_c2 ] <= 90.615
  SyncA_c1_c2_c3: 8.0 o_1 + 100.0 x_c1_c2 - tauD_c2 - 7.075 z_c1_c3 + [ tauS_c3 * z_c1_c3 ] <= 90.615
  SyncA_c1_c2_c4: 8.0 o_1 + 100.0 x_c1_c2 - tauD_c2 - 8.765 z_c1_c4 + [ tauS_c4 * z_c1_c4 ] <= 90.615
  SyncA_c1_c2_c5: 8.0 o_1 + 100.0 x_c1_c2 - tauD_c2 - 5.59 z_c1_c5 + [ tauS_c5 * z_c1_c5 ] <= 90.615
  SyncA_c1_c2_dN: 8.0 o_1 + 100.0 x_c1_c2 - tauD_c2 - 3.25 z_c1_dN + [ tauS_dN * z_c1_dN ] <= 90.615
  SyncA_c1_c3_c2: 8.0 o_1 + 100.0 x_c1_c3 - tauD_c3 - 9.385 z_c1_c2 + [ tauS_c2 * z_c1_c2 ] <= 92.925
  SyncA_c1_c3_c3: 8.0 o_1 + 100.0 x_c1_c3 - tauD_c3 - 7.075 z_c1_c3 + [ tauS_c3 * z_c1_c3 ] <= 92.925
  SyncA_c1_c3_c4: 8.0 o_1 + 100.0 x_c1_c3 - tauD_c3 - 8.765 z_c1_c4 + [ tauS_c4 * z_c1_c4 ] <= 92.925
  SyncA_c1_c3_c5: 8.0 o_1 + 100.0 x_c1_c3 - tauD_c3 - 5.59 z_c1_c5 + [ tauS_c5 * z_c1_c5 ] <= 92.925
  SyncA_c1_c3_dN: 8.0 o_1 + 100.0 x_c1_c3 - tauD_c3 - 3.25 z_c1_dN + [ tauS_dN * z_c1_dN ] <= 92.925
  SyncA_c1_c4_c2: 8.0 o_1 + 100.0 x_c1_c4 - tauD_c4 - 9.385 z_c1_c2 + [ tauS_c2 * z_c1_c2 ] <= 91.235
  SyncA_c1_c4_c3: 8.0 o_1 + 100.0 x_c1_c4 - tauD_c4 - 7.075 z_c1_c3 + [ tauS_c3 * z_c1_c3 ] <= 91.235
  SyncA_c1_c4_c4: 8.0 o_1 + 100.0 x_c1_c4 - tauD_c4 - 8.765 z_c1_c4 + [ tauS_c4 * z_c1_c4 ] <= 91.235
  SyncA_c1_c4_c5: 8.0 o_1 + 100.0 x_c1_c4 - tauD_c4 - 5.59 z_c1_c5 + [ tauS_c5 * z_c1_c5 ] <= 91.235
  SyncA_c1_c4_dN: 8.0 o_1 + 100.0 x_c1_c4 - tauD_c4 - 3.25 z_c1_dN + [ tauS_dN * z_c1_dN ] <= 91.235
  SyncA_c1_c5_c2: 8.0 o_1 + 100.0 x_c1_c5 - tauD_c5 - 9.385 z_c1_c2 + [ tauS_c2 * z_c1_c2 ] <= 94.41
  SyncA_c1_c5_c3: 8.0 o_1 + 100.0 x_c1_c5 - tauD_c5 - 7.075 z_c1_c3 + [ tauS_c3 * z_c1_c3 ] <= 94.41
  SyncA_c1_c5_c4: 8.0 o_1 + 100.0 x_c1_c5 - tauD_c5 - 8.765 z_c1_c4 + [ tauS_c4 * z_c1_c4 ] <= 94.41
  SyncA_c1_c5_c5: 8.0 o_1 + 100.0 x_c1_c5 - tauD_c5 - 5.59 z_c1_c5 + [ tauS_c5 * z_c1_c5 ] <= 94.41
  SyncA_c1_c5_dN: 8.0 o_1 + 100.0 x_c1_c5 - tauD_c5 - 3.25 z_c1_dN + [ tauS_dN * z_c1_dN ] <= 94.41
  SyncA_c1_dN_c2: 8.0 o_1 + 100.0 x_c1_dN - tauD_dN - 9.385 z_c1_c2 + [ tauS_c2 * z_c1_c2 ] <= 96.75
  SyncA_c1_dN_c3: 8.0 o_1 + 100.0 x_c1_dN - tauD_dN - 7.075 z_c1_c3 + [ tauS_c3 * z_c1_c3 ] <= 96.75
  SyncA_c1_dN_c4: 8.0 o_1 + 100.0 x_c1_dN - tauD_dN - 8.765 z_c1_c4 + [ tauS_c4 * z_c1_c4 ] <= 96.75
  SyncA_c1_dN_c5: 8.0 o_1 + 100.0 x_c1_dN - tauD_dN - 5.59 z_c1_c5 + [ tauS_c5 * z_c1_c5 ] <= 96.75
  SyncA_c1_dN_dN: 8.0 o_1 + 100.0 x_c1_dN - tauD_dN - 3.25 z_c1_dN + [ tauS_dN * z_c1_dN ] <= 96.75
  SyncA_c2_c1_c1: 7.0 o_2 + 100.0 x_c2_c1 - tauD_c1 - 9.385 z_c2_c1 + [ tauS_c1 * z_c2_c1 ] <= 90.615
  SyncA_c2_c1_c3: 7.0 o_2 + 100.0 x_c2_c1 - tauD_c1 - 3.26 z_c2_c3 + [ tauS_c3 * z_c2_c3 ] <= 90.615
  SyncA_c2_c1_c4: 7.0 o_2 + 100.0 x_c2_c1 - tauD_c1 - 6.9725 z_c2_c4 + [ tauS_c4 * z_c2_c4 ] <= 90.615
  SyncA_c2_c1_c5: 7.0 o_2 + 100.0 x_c2_c1 - tauD_c1 - 9.5825 z_c2_c5 + [ tauS_c5 * z_c2_c5 ] <= 90.615
  SyncA_c2_c1_dN: 7.0 o_2 + 100.0 x_c2_c1 - tauD_c1 - 6.605 z_c2_dN + [ tauS_dN * z_c2_dN ] <= 90.615
  SyncA_c2_c3_c1: 7.0 o_2 + 100.0 x_c2_c3 - tauD_c3 - 9.385 z_c2_c1 + [ tauS_c1 * z_c2_c1 ] <= 96.74
  SyncA_c2_c3_c3: 7.0 o_2 + 100.0 x_c2_c3 - tauD_c3 - 3.26 z_c2_c3 + [ tauS_c3 * z_c2_c3 ] <= 96.74
  SyncA_c2_c3_c4: 7.0 o_2 + 100.0 x_c2_c3 - tauD_c3 - 6.9725 z_c2_c4 + [ tauS_c4 * z_c2_c4 ] <= 96.74
  SyncA_c2_c3_c5: 7.0 o_2 + 100.0 x_c2_c3 - tauD_c3 - 9.5825 z_c2_c5 + [ tauS_c5 * z_c2_c5 ] <= 96.74
  SyncA_c2_c3_dN: 7.0 o_2 + 100.0 x_c2_c3 - tauD_c3 - 6.605 z_c2_dN + [ tauS_dN * z_c2_dN ] <= 96.74
  SyncA_c2_c4_c1: 7.0 o_2 + 100.0 x_c2_c4 - tauD_c4 - 9.385 z_c2_c1 + [ tauS_c1 * z_c2_c1 ] <= 93.0275
  SyncA_c2_c4_c3: 7.0 o_2 + 100.0 x_c2_c4 - tauD_c4 - 3.26 z_c2_c3 + [ tauS_c3 * z_c2_c3 ] <= 93.0275
  SyncA_c2_c4_c4: 7.0 o_2 + 100.0 x_c2_c4 - tauD_c4 - 6.9725 z_c2_c4 + [ tauS_c4 * z_c2_c4 ] <= 93.0275
  SyncA_c2_c4_c5: 7.0 o_2 + 100.0 x_c2_c4 - tauD_c4 - 9.5825 z_c2_c5 + [ tauS_c5 * z_c2_c5 ] <= 93.0275
  SyncA_c2_c4_dN: 7.0 o_2 + 100.0 x_c2_c4 - tauD_c4 - 6.605 z_c2_dN + [ tauS_dN * z_c2_dN ] <= 93.0275
  SyncA_c2_c5_c1: 7.0 o_2 + 100.0 x_c2_c5 - tauD_c5 - 9.385 z_c2_c1 + [ tauS_c1 * z_c2_c1 ] <= 90.4175
  SyncA_c2_c5_c3: 7.0 o_2 + 100.0 x_c2_c5 - tauD_c5 - 3.26 z_c2_c3 + [ tauS_c3 * z_c2_c3 ] <= 90.4175
  SyncA_c2_c5_c4: 7.0 o_2 + 100.0 x_c2_c5 - tauD_c5 - 6.9725 z_c2_c4 + [ tauS_c4 * z_c2_c4 ] <= 90.4175
  SyncA_c2_c5_c5: 7.0 o_2 + 100.0 x_c2_c5 - tauD_c5 - 9.5825 z_c2_c5 + [ tauS_c5 * z_c2_c5 ] <= 90.4175
  SyncA_c2_c5_dN: 7.0 o_2 + 100.0 x_c2_c5 - tauD_c5 - 6.605 z_c2_dN + [ tauS_dN * z_c2_dN ] <= 90.4175
  SyncA_c2_dN_c1: 7.0 o_2 + 100.0 x_c2_dN - tauD_dN - 9.385 z_c2_c1 + [ tauS_c1 * z_c2_c1 ] <= 93.395
  SyncA_c2_dN_c3: 7.0 o_2 + 100.0 x_c2_dN - tauD_dN - 3.26 z_c2_c3 + [ tauS_c3 * z_c2_c3 ] <= 93.395
  SyncA_c2_dN_c4: 7.0 o_2 + 100.0 x_c2_dN - tauD_dN - 6.9725 z_c2_c4 + [ tauS_c4 * z_c2_c4 ] <= 93.395
  SyncA_c2_dN_c5: 7.0 o_2 + 100.0 x_c2_dN - tauD_dN - 9.5825 z_c2_c5 + [ tauS_c5 * z_c2_c5 ] <= 93.395
  SyncA_c2_dN_dN: 7.0 o_2 + 100.0 x_c2_dN - tauD_dN - 6.605 z_c2_dN + [ tauS_dN * z_c2_dN ] <= 93.395
  SyncA_c3_c1_c1: 5.0 o_3 + 100.0 x_c3_c1 - tauD_c1 - 7.075 z_c3_c1 + [ tauS_c1 * z_c3_c1 ] <= 92.925
  SyncA_c3_c1_c2: 5.0 o_3 + 100.0 x_c3_c1 - tauD_c1 - 3.26 z_c3_c2 + [ tauS_c2 * z_c3_c2 ] <= 92.925
  SyncA_c3_c1_c4: 5.0 o_3 + 100.0 x_c3_c1 - tauD_c1 - 8.2 z_c3_c4 + [ tauS_c4 * z_c3_c4 ] <= 92.925
  SyncA_c3_c1_c5: 5.0 o_3 + 100.0 x_c3_c1 - tauD_c1 - 6.33 z_c3_c5 + [ tauS_c5 * z_c3_c5 ] <= 92.925
  SyncA_c3_c1_dN: 5.0 o_3 + 100.0 x_c3_c1 - tauD_c1 - 3.905 z_c3_dN + [ tauS_dN * z_c3_dN ] <= 92.925
  SyncA_c3_c2_c1: 5.0 o_3 + 100.0 x_c3_c2 - tauD_c2 - 7.075 z_c3_c1 + [ tauS_c1 * z_c3_c1 ] <= 96.74
  SyncA_c3_c2_c2: 5.0 o_3 + 100.0 x_c3_c2 - tauD_c2 - 3.26 z_c3_c2 + [ tauS_c2 * z_c3_c2 ] <= 96.74
  SyncA_c3_c2_c4: 5.0 o_3 + 100.0 x_c3_c2 - tauD_c2 - 8.2 z_c3_c4 + [ tauS_c4 * z_c3_c4 ] <= 96.74
  SyncA_c3_c2_c5: 5.0 o_3 + 100.0 x_c3_c2 - tauD_c2 - 6.33 z_c3_c5 + [ tauS_c5 * z_c3_c5 ] <= 96.74
  SyncA_c3_c2_dN: 5.0 o_3 + 100.0 x_c3_c2 - tauD_c2 - 3.905 z_c3_dN + [ tauS_dN * z_c3_dN ] <= 96.74
  SyncA_c3_c4_c1: 5.0 o_3 + 100.0 x_c3_c4 - tauD_c4 - 7.075 z_c3_c1 + [ tauS_c1 * z_c3_c1 ] <= 91.8
  SyncA_c3_c4_c2: 5.0 o_3 + 100.0 x_c3_c4 - tauD_c4 - 3.26 z_c3_c2 + [ tauS_c2 * z_c3_c2 ] <= 91.8
  SyncA_c3_c4_c4: 5.0 o_3 + 100.0 x_c3_c4 - tauD_c4 - 8.2 z_c3_c4 + [ tauS_c4 * z_c3_c4 ] <= 91.8
  SyncA_c3_c4_c5: 5.0 o_3 + 100.0 x_c3_c4 - tauD_c4 - 6.33 z_c3_c5 + [ tauS_c5 * z_c3_c5 ] <= 91.8
  SyncA_c3_c4_dN: 5.0 o_3 + 100.0 x_c3_c4 - tauD_c4 - 3.905 z_c3_dN + [ tauS_dN * z_c3_dN ] <= 91.8
  SyncA_c3_c5_c1: 5.0 o_3 + 100.0 x_c3_c5 - tauD_c5 - 7.075 z_c3_c1 + [ tauS_c1 * z_c3_c1 ] <= 93.67
  SyncA_c3_c5_c2: 5.0 o_3 + 100.0 x_c3_c5 - tauD_c5 - 3.26 z_c3_c2 + [ tauS_c2 * z_c3_c2 ] <= 93.67
  SyncA_c3_c5_c4: 5.0 o_3 + 100.0 x_c3_c5 - tauD_c5 - 8.2 z_c3_c4 + [ tauS_c4 * z_c3_c4 ] <= 93.67
  SyncA_c3_c5_c5: 5.0 o_3 + 100.0 x_c3_c5 - tauD_c5 - 6.33 z_c3_c5 + [ tauS_c5 * z_c3_c5 ] <= 93.67
  SyncA_c3_c5_dN: 5.0 o_3 + 100.0 x_c3_c5 - tauD_c5 - 3.905 z_c3_dN + [ tauS_dN * z_c3_dN ] <= 93.67
  SyncA_c3_dN_c1: 5.0 o_3 + 100.0 x_c3_dN - tauD_dN - 7.075 z_c3_c1 + [ tauS_c1 * z_c3_c1 ] <= 96.095
  SyncA_c3_dN_c2: 5.0 o_3 + 100.0 x_c3_dN - tauD_dN - 3.26 z_c3_c2 + [ tauS_c2 * z_c3_c2 ] <= 96.095
  SyncA_c3_dN_c4: 5.0 o_3 + 100.0 x_c3_dN - tauD_dN - 8.2 z_c3_c4 + [ tauS_c4 * z_c3_c4 ] <= 96.095
  SyncA_c3_dN_c5: 5.0 o_3 + 100.0 x_c3_dN - tauD_dN - 6.33 z_c3_c5 + [ tauS_c5 * z_c3_c5 ] <= 96.095
  SyncA_c3_dN_dN: 5.0 o_3 + 100.0 x_c3_dN - tauD_dN - 3.905 z_c3_dN + [ tauS_dN * z_c3_dN ] <= 96.095
  SyncA_c4_c1_c1: 3.0 o_4 + 100.0 x_c4_c1 - tauD_c1 - 8.765 z_c4_c1 + [ tauS_c1 * z_c4_c1 ] <= 91.235
  SyncA_c4_c1_c2: 3.0 o_4 + 100.0 x_c4_c1 - tauD_c1 - 6.9725 z_c4_c2 + [ tauS_c2 * z_c4_c2 ] <= 91.235
  SyncA_c4_c1_c3: 3.0 o_4 + 100.0 x_c4_c1 - tauD_c1 - 8.2 z_c4_c3 + [ tauS_c3 * z_c4_c3 ] <= 91.235
  SyncA_c4_c1_c5: 3.0 o_4 + 100.0 x_c4_c1 - tauD_c1 - 12.5225 z_c4_c5 + [ tauS_c5 * z_c4_c5 ] <= 91.235
  SyncA_c4_c1_dN: 3.0 o_4 + 100.0 x_c4_c1 - tauD_c1 - 8.2775 z_c4_dN + [ tauS_dN * z_c4_dN ] <= 91.235
  SyncA_c4_c2_c1: 3.0 o_4 + 100.0 x_c4_c2 - tauD_c2 - 8.765 z_c4_c1 + [ tauS_c1 * z_c4_c1 ] <= 93.0275
  SyncA_c4_c2_c2: 3.0 o_4 + 100.0 x_c4_c2 - tauD_c2 - 6.9725 z_c4_c2 + [ tauS_c2 * z_c4_c2 ] <= 93.0275
  SyncA_c4_c2_c3: 3.0 o_4 + 100.0 x_c4_c2 - tauD_c2 - 8.2 z_c4_c3 + [ tauS_c3 * z_c4_c3 ] <= 93.0275
  SyncA_c4_c2_c5: 3.0 o_4 + 100.0 x_c4_c2 - tauD_c2 - 12.5225 z_c4_c5 + [ tauS_c5 * z_c4_c5 ] <= 93.0275
  SyncA_c4_c2_dN: 3.0 o_4 + 100.0 x_c4_c2 - tauD_c2 - 8.2775 z_c4_dN + [ tauS_dN * z_c4_dN ] <= 93.0275
  SyncA_c4_c3_c1: 3.0 o_4 + 100.0 x_c4_c3 - tauD_c3 - 8.765 z_c4_c1 + [ tauS_c1 * z_c4_c1 ] <= 91.8
  SyncA_c4_c3_c2: 3.0 o_4 + 100.0 x_c4_c3 - tauD_c3 - 6.9725 z_c4_c2 + [ tauS_c2 * z_c4_c2 ] <= 91.8
  SyncA_c4_c3_c3: 3.0 o_4 + 100.0 x_c4_c3 - tauD_c3 - 8.2 z_c4_c3 + [ tauS_c3 * z_c4_c3 ] <= 91.8
  SyncA_c4_c3_c5: 3.0 o_4 + 100.0 x_c4_c3 - tauD_c3 - 12.5225 z_c4_c5 + [ tauS_c5 * z_c4_c5 ] <= 91.8
  SyncA_c4_c3_dN: 3.0 o_4 + 100.0 x_c4_c3 - tauD_c3 - 8.2775 z_c4_dN + [ tauS_dN * z_c4_dN ] <= 91.8
  SyncA_c4_c5_c1: 3.0 o_4 + 100.0 x_c4_c5 - tauD_c5 - 8.765 z_c4_c1 + [ tauS_c1 * z_c4_c1 ] <= 87.47749999999999
  SyncA_c4_c5_c2: 3.0 o_4 + 100.0 x_c4_c5 - tauD_c5 - 6.9725 z_c4_c2 + [ tauS_c2 * z_c4_c2 ] <= 87.47749999999999
  SyncA_c4_c5_c3: 3.0 o_4 + 100.0 x_c4_c5 - tauD_c5 - 8.2 z_c4_c3 + [ tauS_c3 * z_c4_c3 ] <= 87.47749999999999
  SyncA_c4_c5_c5: 3.0 o_4 + 100.0 x_c4_c5 - tauD_c5 - 12.5225 z_c4_c5 + [ tauS_c5 * z_c4_c5 ] <= 87.47749999999999
  SyncA_c4_c5_dN: 3.0 o_4 + 100.0 x_c4_c5 - tauD_c5 - 8.2775 z_c4_dN + [ tauS_dN * z_c4_dN ] <= 87.47749999999999
  SyncA_c4_dN_c1: 3.0 o_4 + 100.0 x_c4_dN - tauD_dN - 8.765 z_c4_c1 + [ tauS_c1 * z_c4_c1 ] <= 91.7225
  SyncA_c4_dN_c2: 3.0 o_4 + 100.0 x_c4_dN - tauD_dN - 6.9725 z_c4_c2 + [ tauS_c2 * z_c4_c2 ] <= 91.7225
  SyncA_c4_dN_c3: 3.0 o_4 + 100.0 x_c4_dN - tauD_dN - 8.2 z_c4_c3 + [ tauS_c3 * z_c4_c3 ] <= 91.7225
  SyncA_c4_dN_c5: 3.0 o_4 + 100.0 x_c4_dN - tauD_dN - 12.5225 z_c4_c5 + [ tauS_c5 * z_c4_c5 ] <= 91.7225
  SyncA_c4_dN_dN: 3.0 o_4 + 100.0 x_c4_dN - tauD_dN - 8.2775 z_c4_dN + [ tauS_dN * z_c4_dN ] <= 91.7225
  SyncA_c5_c1_c1: 4.0 o_5 + 100.0 x_c5_c1 - tauD_c1 - 5.59 z_c5_c1 + [ tauS_c1 * z_c5_c1 ] <= 94.41
  SyncA_c5_c1_c2: 4.0 o_5 + 100.0 x_c5_c1 - tauD_c1 - 9.5825 z_c5_c2 + [ tauS_c2 * z_c5_c2 ] <= 94.41
  SyncA_c5_c1_c3: 4.0 o_5 + 100.0 x_c5_c1 - tauD_c1 - 6.33 z_c5_c3 + [ tauS_c3 * z_c5_c3 ] <= 94.41
  SyncA_c5_c1_c4: 4.0 o_5 + 100.0 x_c5_c1 - tauD_c1 - 12.5225 z_c5_c4 + [ tauS_c4 * z_c5_c4 ] <= 94.41
  SyncA_c5_c1_dN: 4.0 o_5 + 100.0 x_c5_c1 - tauD_c1 - 4.25 z_c5_dN + [ tauS_dN * z_c5_dN ] <= 94.41
  SyncA_c5_c2_c1: 4.0 o_5 + 100.0 x_c5_c2 - tauD_c2 - 5.59 z_c5_c1 + [ tauS_c1 * z_c5_c1 ] <= 90.4175
  SyncA_c5_c2_c2: 4.0 o_5 + 100.0 x_c5_c2 - tauD_c2 - 9.5825 z_c5_c2 + [ tauS_c2 * z_c5_c2 ] <= 90.4175
  SyncA_c5_c2_c3: 4.0 o_5 + 100.0 x_c5_c2 - tauD_c2 - 6.33 z_c5_c3 + [ tauS_c3 * z_c5_c3 ] <= 90.4175
  SyncA_c5_c2_c4: 4.0 o_5 + 100.0 x_c5_c2 - tauD_c2 - 12.5225 z_c5_c4 + [ tauS_c4 * z_c5_c4 ] <= 90.4175
  SyncA_c5_c2_dN: 4.0 o_5 + 100.0 x_c5_c2 - tauD_c2 - 4.25 z_c5_dN + [ tauS_dN * z_c5_dN ] <= 90.4175
  SyncA_c5_c3_c1: 4.0 o_5 + 100.0 x_c5_c3 - tauD_c3 - 5.59 z_c5_c1 + [ tauS_c1 * z_c5_c1 ] <= 93.67
  SyncA_c5_c3_c2: 4.0 o_5 + 100.0 x_c5_c3 - tauD_c3 - 9.5825 z_c5_c2 + [ tauS_c2 * z_c5_c2 ] <= 93.67
  SyncA_c5_c3_c3: 4.0 o_5 + 100.0 x_c5_c3 - tauD_c3 - 6.33 z_c5_c3 + [ tauS_c3 * z_c5_c3 ] <= 93.67
  SyncA_c5_c3_c4: 4.0 o_5 + 100.0 x_c5_c3 - tauD_c3 - 12.5225 z_c5_c4 + [ tauS_c4 * z_c5_c4 ] <= 93.67
  SyncA_c5_c3_dN: 4.0 o_5 + 100.0 x_c5_c3 - tauD_c3 - 4.25 z_c5_dN + [ tauS_dN * z_c5_dN ] <= 93.67
  SyncA_c5_c4_c1: 4.0 o_5 + 100.0 x_c5_c4 - tauD_c4 - 5.59 z_c5_c1 + [ tauS_c1 * z_c5_c1 ] <= 87.47749999999999
  SyncA_c5_c4_c2: 4.0 o_5 + 100.0 x_c5_c4 - tauD_c4 - 9.5825 z_c5_c2 + [ tauS_c2 * z_c5_c2 ] <= 87.47749999999999
  SyncA_c5_c4_c3: 4.0 o_5 + 100.0 x_c5_c4 - tauD_c4 - 6.33 z_c5_c3 + [ tauS_c3 * z_c5_c3 ] <= 87.47749999999999
  SyncA_c5_c4_c4: 4.0 o_5 + 100.0 x_c5_c4 - tauD_c4 - 12.5225 z_c5_c4 + [ tauS_c4 * z_c5_c4 ] <= 87.47749999999999
  SyncA_c5_c4_dN: 4.0 o_5 + 100.0 x_c5_c4 - tauD_c4 - 4.25 z_c5_dN + [ tauS_dN * z_c5_dN ] <= 87.47749999999999
  SyncA_c5_dN_c1: 4.0 o_5 + 100.0 x_c5_dN - tauD_dN - 5.59 z_c5_c1 + [ tauS_c1 * z_c5_c1 ] <= 95.75
  SyncA_c5_dN_c2: 4.0 o_5 + 100.0 x_c5_dN - tauD_dN - 9.5825 z_c5_c2 + [ tauS_c2 * z_c5_c2 ] <= 95.75
  SyncA_c5_dN_c3: 4.0 o_5 + 100.0 x_c5_dN - tauD_dN - 6.33 z_c5_c3 + [ tauS_c3 * z_c5_c3 ] <= 95.75
  SyncA_c5_dN_c4: 4.0 o_5 + 100.0 x_c5_dN - tauD_dN - 12.5225 z_c5_c4 + [ tauS_c4 * z_c5_c4 ] <= 95.75
  SyncA_c5_dN_dN: 4.0 o_5 + 100.0 x_c5_dN - tauD_dN - 4.25 z_c5_dN + [ tauS_dN * z_c5_dN ] <= 95.75
  SVFirst_c1_c2: tauS_c2 - tauD_c1 + 8.0 o_1 - 100.0 z_c1_c2 >= -74.61500000000001
  SVFirst_c1_c3: tauS_c3 - tauD_c1 + 8.0 o_1 - 100.0 z_c1_c3 >= -76.925
  SVFirst_c1_c4: tauS_c4 - tauD_c1 + 8.0 o_1 - 100.0 z_c1_c4 >= -75.235
  SVFirst_c1_c5: tauS_c5 - tauD_c1 + 8.0 o_1 - 100.0 z_c1_c5 >= -78.41
  SVFirst_c1_dN:  tauS_dN - tauD_c1 + 8.0 o_1 - 100.0 z_c1_dN >= -80.75
  SVFirst_c2_c1: tauS_c1 - tauD_c2 + 7.0 o_2 - 100.0 z_c2_c1 >= -75.61500000000001
  SVFirst_c2_c3: tauS_c3 - tauD_c2 + 7.0 o_2 - 100.0 z_c2_c3 >= -81.74
  SVFirst_c2_c4: tauS_c4 - tauD_c2 + 7.0 o_2 - 100.0 z_c2_c4 >= -78.0275
  SVFirst_c2_c5: tauS_c5 - tauD_c2 + 7.0 o_2 - 100.0 z_c2_c5 >= -75.4175
  SVFirst_c2_dN:  tauS_dN - tauD_c2 + 7.0 o_2 - 100.0 z_c2_dN >= -78.395
  SVFirst_c3_c1: tauS_c1 - tauD_c3 + 5.0 o_3 - 100.0 z_c3_c1 >= -79.925
  SVFirst_c3_c2: tauS_c2 - tauD_c3 + 5.0 o_3 - 100.0 z_c3_c2 >= -83.74
  SVFirst_c3_c4: tauS_c4 - tauD_c3 + 5.0 o_3 - 100.0 z_c3_c4 >= -78.8
  SVFirst_c3_c5: tauS_c5 - tauD_c3 + 5.0 o_3 - 100.0 z_c3_c5 >= -80.67
  SVFirst_c3_dN:  tauS_dN - tauD_c3 + 5.0 o_3 - 100.0 z_c3_dN >= -83.095
  SVFirst_c4_c1: tauS_c1 - tauD_c4 + 3.0 o_4 - 100.0 z_c4_c1 >= -80.235
  SVFirst_c4_c2: tauS_c2 - tauD_c4 + 3.0 o_4 - 100.0 z_c4_c2 >= -82.0275
  SVFirst_c4_c3: tauS_c3 - tauD_c4 + 3.0 o_4 - 100.0 z_c4_c3 >= -80.8
  SVFirst_c4_c5: tauS_c5 - tauD_c4 + 3.0 o_4 - 100.0 z_c4_c5 >= -76.47749999999999
  SVFirst_c4_dN:  tauS_dN - tauD_c4 + 3.0 o_4 - 100.0 z_c4_dN >= -80.7225
  SVFirst_c5_c1: tauS_c1 - tauD_c5 + 4.0 o_5 - 100.0 z_c5_c1 >= -82.41
  SVFirst_c5_c2: tauS_c2 - tauD_c5 + 4.0 o_5 - 100.0 z_c5_c2 >= -78.4175
  SVFirst_c5_c3: tauS_c3 - tauD_c5 + 4.0 o_5 - 100.0 z_c5_c3 >= -81.67
  SVFirst_c5_c4: tauS_c4 - tauD_c5 + 4.0 o_5 - 100.0 z_c5_c4 >= -75.47749999999999
  SVFirst_c5_dN:  tauS_dN - tauD_c5 + 4.0 o_5 - 100.0 z_c5_dN >= -83.75
  Precedence_Swap_c1:  p_1 - z_d0_c1 - z_c2_c1 - z_c3_c1 - z_c4_c1 - z_c5_c1 = 0
  Precedence_Swap_c2:  p_2 - z_d0_c2 - z_c1_c2 - z_c3_c2 - z_c4_c2 - z_c5_c2 = 0
  Precedence_Swap_c3:  p_3 - z_d0_c3 - z_c1_c3 - z_c2_c3 - z_c4_c3 - z_c5_c3 = 0
  Precedence_Swap_c4:  p_4 - z_d0_c4 - z_c1_c4 - z_c2_c4 - z_c3_c4 - z_c5_c4 = 0
  Precedence_Swap_c5:  p_5 - z_d0_c5 - z_c1_c5 - z_c2_c5 - z_c3_c5 - z_c4_c5 = 0
  Order_c1:  o_1 - p_1 <= 0
  Order_c2:  o_2 - p_2 <= 0
  Order_c3:  o_3 - p_3 <= 0
  Order_c4:  o_4 - p_4 <= 0
  Order_c5:  o_5 - p_5 <= 0
  WorkingTimeS_c1:  tauS_c1 <= 88.75
  WorkingTimeS_c2:  tauS_c2 <= 85.395
  WorkingTimeS_c3:  tauS_c3 <= 88.095
  WorkingTimeS_c4:  tauS_c4 <= 83.7225
  WorkingTimeS_c5:  tauS_c5 <= 87.75
  FreightDV_c1_c2:  k_c2 - kDash_c1 - 10.0 p_1 + 10.0 x_c1_c2 + [ kDash_c1 * p_1 - kDash_c1 * o_1 + 10.0 p_1 * o_1 ] <= 10.0
  FreightDV_c1_c3:  k_c3 - kDash_c1 - 10.0 p_1 + 10.0 x_c1_c3 + [ kDash_c1 * p_1 - kDash_c1 * o_1 + 10.0 p_1 * o_1 ] <= 10.0
  FreightDV_c1_c4:  k_c4 - kDash_c1 - 10.0 p_1 + 10.0 x_c1_c4 + [ kDash_c1 * p_1 - kDash_c1 * o_1 + 10.0 p_1 * o_1 ] <= 10.0
  FreightDV_c1_c5:  k_c5 - kDash_c1 - 10.0 p_1 + 10.0 x_c1_c5 + [ kDash_c1 * p_1 - kDash_c1 * o_1 + 10.0 p_1 * o_1 ] <= 10.0
  FreightDV_c1_dN:  k_dN - kDash_c1 - 10.0 p_1 + 10.0 x_c1_dN + [ kDash_c1 * p_1 - kDash_c1 * o_1 + 10.0 p_1 * o_1 ] <= 10.0
  FreightDV_c1:  kDash_c1 - k_c1 - 10.0 o_1 + [ k_c1 * o_1 ] <= -4.0
  FreightDV_c2_c1:  k_c1 - kDash_c2 - 10.0 p_2 + 10.0 x_c2_c1 + [ kDash_c2 * p_2 - kDash_c2 * o_2 + 10.0 p_2 * o_2 ] <= 10.0
  FreightDV_c2_c3:  k_c3 - kDash_c2 - 10.0 p_2 + 10.0 x_c2_c3 + [ kDash_c2 * p_2 - kDash_c2 * o_2 + 10.0 p_2 * o_2 ] <= 10.0
  FreightDV_c2_c4:  k_c4 - kDash_c2 - 10.0 p_2 + 10.0 x_c2_c4 + [ kDash_c2 * p_2 - kDash_c2 * o_2 + 10.0 p_2 * o_2 ] <= 10.0
  FreightDV_c2_c5:  k_c5 - kDash_c2 - 10.0 p_2 + 10.0 x_c2_c5 + [ kDash_c2 * p_2 - kDash_c2 * o_2 + 10.0 p_2 * o_2 ] <= 10.0
  FreightDV_c2_dN:  k_dN - kDash_c2 - 10.0 p_2 + 10.0 x_c2_dN + [ kDash_c2 * p_2 - kDash_c2 * o_2 + 10.0 p_2 * o_2 ] <= 10.0
  FreightDV_c2:  kDash_c2 - k_c2 - 10.0 o_2 + [ k_c2 * o_2 ] <= -6.0
  FreightDV_c3_c1:  k_c1 - kDash_c3 - 10.0 p_3 + 10.0 x_c3_c1 + [ kDash_c3 * p_3 - kDash_c3 * o_3 + 10.0 p_3 * o_3 ] <= 10.0
  FreightDV_c3_c2:  k_c2 - kDash_c3 - 10.0 p_3 + 10.0 x_c3_c2 + [ kDash_c3 * p_3 - kDash_c3 * o_3 + 10.0 p_3 * o_3 ] <= 10.0
  FreightDV_c3_c4:  k_c4 - kDash_c3 - 10.0 p_3 + 10.0 x_c3_c4 + [ kDash_c3 * p_3 - kDash_c3 * o_3 + 10.0 p_3 * o_3 ] <= 10.0
  FreightDV_c3_c5:  k_c5 - kDash_c3 - 10.0 p_3 + 10.0 x_c3_c5 + [ kDash_c3 * p_3 - kDash_c3 * o_3 + 10.0 p_3 * o_3 ] <= 10.0
  FreightDV_c3_dN:  k_dN - kDash_c3 - 10.0 p_3 + 10.0 x_c3_dN + [ kDash_c3 * p_3 - kDash_c3 * o_3 + 10.0 p_3 * o_3 ] <= 10.0
  FreightDV_c3:  kDash_c3 - k_c3 - 10.0 o_3 + [ k_c3 * o_3 ] <= -5.0
  FreightDV_c4_c1:  k_c1 - kDash_c4 - 10.0 p_4 + 10.0 x_c4_c1 + [ kDash_c4 * p_4 - kDash_c4 * o_4 + 10.0 p_4 * o_4 ] <= 10.0
  FreightDV_c4_c2:  k_c2 - kDash_c4 - 10.0 p_4 + 10.0 x_c4_c2 + [ kDash_c4 * p_4 - kDash_c4 * o_4 + 10.0 p_4 * o_4 ] <= 10.0
  FreightDV_c4_c3:  k_c3 - kDash_c4 - 10.0 p_4 + 10.0 x_c4_c3 + [ kDash_c4 * p_4 - kDash_c4 * o_4 + 10.0 p_4 * o_4 ] <= 10.0
  FreightDV_c4_c5:  k_c5 - kDash_c4 - 10.0 p_4 + 10.0 x_c4_c5 + [ kDash_c4 * p_4 - kDash_c4 * o_4 + 10.0 p_4 * o_4 ] <= 10.0
  FreightDV_c4_dN:  k_dN - kDash_c4 - 10.0 p_4 + 10.0 x_c4_dN + [ kDash_c4 * p_4 - kDash_c4 * o_4 + 10.0 p_4 * o_4 ] <= 10.0
  FreightDV_c4:  kDash_c4 - k_c4 - 10.0 o_4 + [ k_c4 * o_4 ] <= -4.0
  FreightDV_c5_c1:  k_c1 - kDash_c5 - 10.0 p_5 + 10.0 x_c5_c1 + [ kDash_c5 * p_5 - kDash_c5 * o_5 + 10.0 p_5 * o_5 ] <= 10.0
  FreightDV_c5_c2:  k_c2 - kDash_c5 - 10.0 p_5 + 10.0 x_c5_c2 + [ kDash_c5 * p_5 - kDash_c5 * o_5 + 10.0 p_5 * o_5 ] <= 10.0
  FreightDV_c5_c3:  k_c3 - kDash_c5 - 10.0 p_5 + 10.0 x_c5_c3 + [ kDash_c5 * p_5 - kDash_c5 * o_5 + 10.0 p_5 * o_5 ] <= 10.0
  FreightDV_c5_c4:  k_c4 - kDash_c5 - 10.0 p_5 + 10.0 x_c5_c4 + [ kDash_c5 * p_5 - kDash_c5 * o_5 + 10.0 p_5 * o_5 ] <= 10.0
  FreightDV_c5_dN:  k_dN - kDash_c5 - 10.0 p_5 + 10.0 x_c5_dN + [ kDash_c5 * p_5 - kDash_c5 * o_5 + 10.0 p_5 * o_5 ] <= 10.0
  FreightDV_c5:  kDash_c5 - k_c5 - 10.0 o_5 + [ k_c5 * o_5 ] <= -4.0
  FreightSV_c1_c2:  pi_c2 - pi_c1 - kDash_c1 + 20.0 z_c1_c2 + [ kDash_c1 * o_1 - k_c1 * o_1 ] <= 10.0
  FreightSV_c1_c3:  pi_c3 - pi_c1 - kDash_c1 + 20.0 z_c1_c3 + [ kDash_c1 * o_1 - k_c1 * o_1 ] <= 10.0
  FreightSV_c1_c4:  pi_c4 - pi_c1 - kDash_c1 + 20.0 z_c1_c4 + [ kDash_c1 * o_1 - k_c1 * o_1 ] <= 10.0
  FreightSV_c1_c5:  pi_c5 - pi_c1 - kDash_c1 + 20.0 z_c1_c5 + [ kDash_c1 * o_1 - k_c1 * o_1 ] <= 10.0
  FreightSV_c1_dN:  pi_dN - pi_c1 - kDash_c1 + 20.0 z_c1_dN + [ kDash_c1 * o_1 - k_c1 * o_1 ] <= 10.0
  FreightSV_c2_c1:  pi_c1 - pi_c2 - kDash_c2 + 20.0 z_c2_c1 + [ kDash_c2 * o_2 - k_c2 * o_2 ] <= 10.0
  FreightSV_c2_c3:  pi_c3 - pi_c2 - kDash_c2 + 20.0 z_c2_c3 + [ kDash_c2 * o_2 - k_c2 * o_2 ] <= 10.0
  FreightSV_c2_c4:  pi_c4 - pi_c2 - kDash_c2 + 20.0 z_c2_c4 + [ kDash_c2 * o_2 - k_c2 * o_2 ] <= 10.0
  FreightSV_c2_c5:  pi_c5 - pi_c2 - kDash_c2 + 20.0 z_c2_c5 + [ kDash_c2 * o_2 - k_c2 * o_2 ] <= 10.0
  FreightSV_c2_dN:  pi_dN - pi_c2 - kDash_c2 + 20.0 z_c2_dN + [ kDash_c2 * o_2 - k_c2 * o_2 ] <= 10.0
  FreightSV_c3_c1:  pi_c1 - pi_c3 - kDash_c3 + 20.0 z_c3_c1 + [ kDash_c3 * o_3 - k_c3 * o_3 ] <= 10.0
  FreightSV_c3_c2:  pi_c2 - pi_c3 - kDash_c3 + 20.0 z_c3_c2 + [ kDash_c3 * o_3 - k_c3 * o_3 ] <= 10.0
  FreightSV_c3_c4:  pi_c4 - pi_c3 - kDash_c3 + 20.0 z_c3_c4 + [ kDash_c3 * o_3 - k_c3 * o_3 ] <= 10.0
  FreightSV_c3_c5:  pi_c5 - pi_c3 - kDash_c3 + 20.0 z_c3_c5 + [ kDash_c3 * o_3 - k_c3 * o_3 ] <= 10.0
  FreightSV_c3_dN:  pi_dN - pi_c3 - kDash_c3 + 20.0 z_c3_dN + [ kDash_c3 * o_3 - k_c3 * o_3 ] <= 10.0
  FreightSV_c4_c1:  pi_c1 - pi_c4 - kDash_c4 + 20.0 z_c4_c1 + [ kDash_c4 * o_4 - k_c4 * o_4 ] <= 10.0
  FreightSV_c4_c2:  pi_c2 - pi_c4 - kDash_c4 + 20.0 z_c4_c2 + [ kDash_c4 * o_4 - k_c4 * o_4 ] <= 10.0
  FreightSV_c4_c3:  pi_c3 - pi_c4 - kDash_c4 + 20.0 z_c4_c3 + [ kDash_c4 * o_4 - k_c4 * o_4 ] <= 10.0
  FreightSV_c4_c5:  pi_c5 - pi_c4 - kDash_c4 + 20.0 z_c4_c5 + [ kDash_c4 * o_4 - k_c4 * o_4 ] <= 10.0
  FreightSV_c4_dN:  pi_dN - pi_c4 - kDash_c4 + 20.0 z_c4_dN + [ kDash_c4 * o_4 - k_c4 * o_4 ] <= 10.0
  FreightSV_c5_c1:  pi_c1 - pi_c5 - kDash_c5 + 20.0 z_c5_c1 + [ kDash_c5 * o_5 - k_c5 * o_5 ] <= 10.0
  FreightSV_c5_c2:  pi_c2 - pi_c5 - kDash_c5 + 20.0 z_c5_c2 + [ kDash_c5 * o_5 - k_c5 * o_5 ] <= 10.0
  FreightSV_c5_c3:  pi_c3 - pi_c5 - kDash_c5 + 20.0 z_c5_c3 + [ kDash_c5 * o_5 - k_c5 * o_5 ] <= 10.0
  FreightSV_c5_c4:  pi_c4 - pi_c5 - kDash_c5 + 20.0 z_c5_c4 + [ kDash_c5 * o_5 - k_c5 * o_5 ] <= 10.0
  FreightSV_c5_dN:  pi_dN - pi_c5 - kDash_c5 + 20.0 z_c5_dN + [ kDash_c5 * o_5 - k_c5 * o_5 ] <= 10.0
  FuelDV_d0_c1:  phi_c1 - phi_d0 + 12.8697 x_d0_c1 <= 12.0
  FuelDV_d0_c2:  phi_c2 - phi_d0 + 13.7675 x_d0_c2 <= 12.0
  FuelDV_d0_c3:  phi_c3 - phi_d0 + 13.045 x_d0_c3 <= 12.0
  FuelDV_d0_c4:  phi_c4 - phi_d0 + 14.2151 x_d0_c4 <= 12.0
  FuelDV_d0_c5:  phi_c5 - phi_d0 + 13.1373 x_d0_c5 <= 12.0
  FuelDV_c1_c2:  phi_c2 - phi_c1 + 14.5114 x_c1_c2 <= 12.0
  FuelDV_c1_c3:  phi_c3 - phi_c1 + 13.8933 x_c1_c3 <= 12.0
  FuelDV_c1_c4:  phi_c4 - phi_c1 + 14.3455 x_c1_c4 <= 12.0
  FuelDV_c1_c5:  phi_c5 - phi_c1 + 13.4959 x_c1_c5 <= 12.0
  FuelDV_c1_dN:  phi_dN - phi_c1 + 12.8697 x_c1_dN <= 12.0
  FuelDV_c2_c1:  phi_c1 - phi_c2 + 14.5114 x_c2_c1 <= 12.0
  FuelDV_c2_c3:  phi_c3 - phi_c2 + 12.8724 x_c2_c3 <= 12.0
  FuelDV_c2_c4:  phi_c4 - phi_c2 + 13.8658 x_c2_c4 <= 12.0
  FuelDV_c2_c5:  phi_c5 - phi_c2 + 14.5643 x_c2_c5 <= 12.0
  FuelDV_c2_dN:  phi_dN - phi_c2 + 13.7675 x_c2_dN <= 12.0
  FuelDV_c3_c1:  phi_c1 - phi_c3 + 13.8933 x_c3_c1 <= 12.0
  FuelDV_c3_c2:  phi_c2 - phi_c3 + 12.8724 x_c3_c2 <= 12.0
  FuelDV_c3_c4:  phi_c4 - phi_c3 + 14.1943 x_c3_c4 <= 12.0
  FuelDV_c3_c5:  phi_c5 - phi_c3 + 13.6939 x_c3_c5 <= 12.0
  FuelDV_c3_dN:  phi_dN - phi_c3 + 13.045 x_c3_dN <= 12.0
  FuelDV_c4_c1:  phi_c1 - phi_c4 + 14.3455 x_c4_c1 <= 12.0
  FuelDV_c4_c2:  phi_c2 - phi_c4 + 13.8658 x_c4_c2 <= 12.0
  FuelDV_c4_c3:  phi_c3 - phi_c4 + 14.1943 x_c4_c3 <= 12.0
  FuelDV_c4_c5:  phi_c5 - phi_c4 + 15.350999999999999 x_c4_c5 <= 12.0
  FuelDV_c4_dN:  phi_dN - phi_c4 + 14.2151 x_c4_dN <= 12.0
  FuelDV_c5_c1:  phi_c1 - phi_c5 + 13.4959 x_c5_c1 <= 12.0
  FuelDV_c5_c2:  phi_c2 - phi_c5 + 14.5643 x_c5_c2 <= 12.0
  FuelDV_c5_c3:  phi_c3 - phi_c5 + 13.6939 x_c5_c3 <= 12.0
  FuelDV_c5_c4:  phi_c4 - phi_c5 + 15.350999999999999 x_c5_c4 <= 12.0
  FuelDV_c5_dN:  phi_dN - phi_c5 + 13.1373 x_c5_dN <= 12.0
  WorkingTimeD_c1:  tauD_c1 + 8.0 p_1 <= 88.75
  WorkingTimeD_c2:  tauD_c2 + 8.0 p_2 <= 86.395
  WorkingTimeD_c3:  tauD_c3 + 8.0 p_3 <= 91.095
  WorkingTimeD_c4:  tauD_c4 + 8.0 p_4 <= 88.7225
  WorkingTimeD_c5:  tauD_c5 + 8.0 p_5 <= 91.75
Bounds
0 <= kDash_c1 <= 10.0
0 <= kDash_c2 <= 10.0
0 <= kDash_c3 <= 10.0
0 <= kDash_c4 <= 10.0
0 <= kDash_c5 <= 10.0
0 <= kDash_dN <= 10.0
0 <= k_c1 <= 10.0
0 <= k_c2 <= 10.0
0 <= k_c3 <= 10.0
0 <= k_c4 <= 10.0
0 <= k_c5 <= 10.0
0 <= k_dN <= 10.0
0 <= phi_c1 <= 12.0
0 <= phi_c2 <= 12.0
0 <= phi_c3 <= 12.0
0 <= phi_c4 <= 12.0
0 <= phi_c5 <= 12.0
0 <= phi_d0 <= 12.0
0 <= phi_dN <= 12.0
0 <= pi_c1 <= 50.0
0 <= pi_c2 <= 50.0
0 <= pi_c3 <= 50.0
0 <= pi_c4 <= 50.0
0 <= pi_c5 <= 50.0
0 <= pi_dN <= 50.0
0 <= tauD_c1 <= 100.0
0 <= tauD_c2 <= 100.0
0 <= tauD_c3 <= 100.0
0 <= tauD_c4 <= 100.0
0 <= tauD_c5 <= 100.0
0 <= tauD_d0 <= 100.0
0 <= tauD_dN <= 100.0
0 <= tauS_c1 <= 100.0
0 <= tauS_c2 <= 100.0
0 <= tauS_c3 <= 100.0
0 <= tauS_c4 <= 100.0
0 <= tauS_c5 <= 100.0
0 <= tauS_d0 <= 100.0
0 <= tauS_dN <= 100.0
Generals
  kDash_c1
  kDash_c2
  kDash_c3
  kDash_c4
  kDash_c5
  kDash_dN
  k_c1
  k_c2
  k_c3
  k_c4
  k_c5
  k_dN
  phi_c1
  phi_c2
  phi_c3
  phi_c4
  phi_c5
  phi_d0
  phi_dN
  pi_c1
  pi_c2
  pi_c3
  pi_c4
  pi_c5
  pi_dN
  tauD_c1
  tauD_c2
  tauD_c3
  tauD_c4
  tauD_c5
  tauD_d0
  tauD_dN
  tauS_c1
  tauS_c2
  tauS_c3
  tauS_c4
  tauS_c5
  tauS_d0
  tauS_dN
Binary
  o_1
  o_2
  o_3
  o_4
  o_5
  p_1
  p_2
  p_3
  p_4
  p_5
  x_c1_c2
  x_c1_c3
  x_c1_c4
  x_c1_c5
  x_c1_dN
  x_c2_c1
  x_c2_c3
  x_c2_c4
  x_c2_c5
  x_c2_dN
  x_c3_c1
  x_c3_c2
  x_c3_c4
  x_c3_c5
  x_c3_dN
  x_c4_c1
  x_c4_c2
  x_c4_c3
  x_c4_c5
  x_c4_dN
  x_c5_c1
  x_c5_c2
  x_c5_c3
  x_c5_c4
  x_c5_dN
  x_d0_c1
  x_d0_c2
  x_d0_c3
  x_d0_c4
  x_d0_c5
  z_c1_c2
  z_c1_c3
  z_c1_c4
  z_c1_c5
  z_c1_dN
  z_c2_c1
  z_c2_c3
  z_c2_c4
  z_c2_c5
  z_c2_dN
  z_c3_c1
  z_c3_c2
  z_c3_c4
  z_c3_c5
  z_c3_dN
  z_c4_c1
  z_c4_c2
  z_c4_c3
  z_c4_c5
  z_c4_dN
  z_c5_c1
  z_c5_c2
  z_c5_c3
  z_c5_c4
  z_c5_dN
  z_d0_c1
  z_d0_c2
  z_d0_c3
  z_d0_c4
  z_d0_c5
End
