VRPTWMS/instances/mip/freight/5/N5-C_DV10-C_SV50_F12_18_No_1.log

Gurobi 6.0.4 (win64) logging started 06/13/15 23:06:38

Warning: unknown variable 'kDash_dN' in bounds section
Read LP format model from file C:\MT\repository\VRPTWMS\instances\mip\freight\N5-C_DV10-C_SV50_F12_18_No_1.lp
Reading time = 0.00 seconds
(null): 161 rows, 110 columns, 603 nonzeros
Optimize a model with 161 rows, 110 columns and 603 nonzeros
Model has 180 quadratic constraints
WARNING: Only barrier available for SOCP models
Coefficient statistics:
  Matrix range    [1e+00, 1e+02]
  Objective range [1e+01, 1e+03]
  Bounds range    [1e+00, 1e+02]
  RHS range       [1e+00, 1e+02]
Presolve removed 27 rows and 13 columns
Presolve time: 0.02s
Presolved: 569 rows, 327 columns, 2440 nonzeros
Variable types: 205 continuous, 122 integer (88 binary)
Found heuristic solution: objective 5210.3000000
Optimize a model with 569 rows, 327 columns and 2440 nonzeros
Coefficient statistics:
  Matrix range    [1e+00, 1e+02]
  Objective range [1e+01, 1e+03]
  Bounds range    [1e+00, 1e+02]
  RHS range       [1e+00, 1e+02]
Presolve removed 37 rows and 21 columns
Presolved: 532 rows, 307 columns, 2280 nonzeros


Root relaxation: objective 7.967492e+02, 71 iterations, 0.00 seconds

    Nodes    |    Current Node    |     Objective Bounds      |     Work
 Expl Unexpl |  Obj  Depth IntInf | Incumbent    BestBd   Gap | It/Node Time

     0     0  796.74921    0   36 5210.30000  796.74921  84.7%     -    0s
H    0     0                    3191.9500000  796.74921  75.0%     -    0s
     0     0 1144.35000    0    7 3191.95000 1144.35000  64.1%     -    0s
H    0     0                    3171.0200000 1144.35000  63.9%     -    0s
     0     0 1155.53000    0   20 3171.02000 1155.53000  63.6%     -    0s
     0     0 1157.40590    0   53 3171.02000 1157.40590  63.5%     -    0s
     0     0 1157.44933    0   54 3171.02000 1157.44933  63.5%     -    0s
H    0     0                    2186.3900000 1157.44933  47.1%     -    0s
     0     0 1157.45500    0   53 2186.39000 1157.45500  47.1%     -    0s
     0     0 1158.50706    0   57 2186.39000 1158.50706  47.0%     -    0s
     0     0 1158.84929    0   54 2186.39000 1158.84929  47.0%     -    0s
     0     0 1159.07130    0   46 2186.39000 1159.07130  47.0%     -    0s
     0     0 1159.63500    0   48 2186.39000 1159.63500  47.0%     -    0s
     0     0 1159.63500    0   47 2186.39000 1159.63500  47.0%     -    0s
     0     2 1159.63500    0   47 2186.39000 1159.63500  47.0%     -    0s

Cutting planes:
  Gomory: 2
  Cover: 9
  Implied bound: 19
  Clique: 21
  MIR: 19
  Flow cover: 3
  GUB cover: 3
  Zero half: 1

Explored 113 nodes (3025 simplex iterations) in 0.20 seconds
Thread count was 2 (of 4 available processors)

Optimal solution found (tolerance 1.00e-04)
Best objective 2.186390000000e+03, best bound 2.186390000000e+03, gap 0.0%
k_c1	4.0
k_c2	10.0
k_c3	6.0
k_c4	9.0
k_c5	10.0
k_dN	-0.0
kDash_c1	-0.0
kDash_c2	3.0
kDash_c3	1.0
kDash_c4	5.0
kDash_c5	6.0
kDash_dN	-0.0
o_1	-0.0
o_2	-0.0
o_3	-0.0
o_4	-0.0
o_5	-0.0
p_1	-0.0
p_2	1.0
p_3	1.0
p_4	-0.0
p_5	-0.0
phi_c1	1.0
phi_c2	6.0
phi_c3	7.0
phi_c4	4.0
phi_c5	10.0
phi_d0	12.0
phi_dN	-0.0
pi_c1	20.0
pi_c2	7.0
pi_c3	16.0
pi_c4	20.0
pi_c5	20.0
pi_dN	-0.0
tauD_c1	88.0
tauD_c2	40.0
tauD_c3	16.0
tauD_c4	76.0
tauD_c5	5.0
tauD_d0	-0.0
tauD_dN	100.0
tauS_c1	88.0
tauS_c2	40.0
tauS_c3	21.0
tauS_c4	83.0
tauS_c5	87.0
tauS_d0	-0.0
tauS_dN	62.0
x_c1_dN	1.0
x_c2_c4	1.0
x_c3_c2	1.0
x_c4_c1	1.0
x_c5_c3	1.0
x_d0_c5	1.0
z_c2_dN	1.0
z_c3_c2	1.0
z_d0_c3	1.0
